(set-logic ALL)
(declare-fun var0 () String)
(assert (str.in_re var0 (re.++ (re.* (re.+ (str.to_re "000"))) (re.++ (re.+ (re.* (str.to_re "1"))) (re.++ (re.+ (re.* (str.to_re "22"))) (re.++ (re.union (re.* (str.to_re "33")) (re.* (str.to_re "44"))) (re.++ (re.union (re.* (str.to_re "5")) (re.* (str.to_re "66"))) (re.++ (re.* (re.union (str.to_re "777") (str.to_re "888"))) (re.++ (re.+ (re.union (str.to_re "99") (str.to_re "a"))) (re.++ (re.+ (re.* (str.to_re "bbb"))) (re.++ (re.union (re.+ (str.to_re "ccc")) (re.+ (str.to_re "dd"))) (re.union (re.* (str.to_re "eee")) (re.* (str.to_re "ff"))))))))))))))
(assert (str.in_re var0 (re.++ (re.+ (re.+ (str.to_re "00"))) (re.++ (re.union (re.+ (str.to_re "1")) (re.+ (str.to_re "2"))) (re.++ (re.union (re.* (str.to_re "333")) (re.* (str.to_re "444"))) (re.++ (re.+ (re.union (str.to_re "5") (str.to_re "666"))) (re.++ (re.+ (re.* (str.to_re "77"))) (re.++ (re.* (re.+ (str.to_re "88"))) (re.++ (re.union (re.union (str.to_re "99") (str.to_re "aa")) (re.union (str.to_re "bb") (str.to_re "ccc"))) (re.++ (re.+ (re.* (str.to_re "ddd"))) (re.++ (re.union (re.union (str.to_re "eee") (str.to_re "f")) (re.union (str.to_re "gg") (str.to_re "hh"))) (re.* (re.* (str.to_re "iii"))))))))))))))
(assert (str.in_re var0 (re.++ (re.* (re.* (str.to_re "0"))) (re.++ (re.union (re.union (str.to_re "1") (str.to_re "22")) (re.union (str.to_re "3") (str.to_re "4"))) (re.++ (re.+ (re.* (str.to_re "55"))) (re.++ (re.* (re.* (str.to_re "6"))) (re.++ (re.union (re.+ (str.to_re "77")) (re.+ (str.to_re "8"))) (re.++ (re.* (re.union (str.to_re "9") (str.to_re "aaa"))) (re.++ (re.* (re.* (str.to_re "bbb"))) (re.++ (re.* (re.union (str.to_re "c") (str.to_re "ddd"))) (re.++ (re.union (re.+ (str.to_re "e")) (re.+ (str.to_re "f"))) (re.+ (re.union (str.to_re "ggg") (str.to_re "h"))))))))))))))
(assert (str.in_re var0 (re.++ (re.+ (re.+ (str.to_re "0"))) (re.++ (re.union (re.union (str.to_re "11") (str.to_re "2")) (re.union (str.to_re "3") (str.to_re "44"))) (re.++ (re.union (re.* (str.to_re "55")) (re.* (str.to_re "666"))) (re.++ (re.* (re.* (str.to_re "777"))) (re.++ (re.* (re.* (str.to_re "8"))) (re.++ (re.+ (re.+ (str.to_re "9"))) (re.++ (re.+ (re.union (str.to_re "aa") (str.to_re "b"))) (re.++ (re.+ (re.+ (str.to_re "cc"))) (re.++ (re.+ (re.* (str.to_re "dd"))) (re.+ (re.union (str.to_re "ee") (str.to_re "fff"))))))))))))))
(assert (str.in_re var0 (re.++ (re.* (re.+ (str.to_re "00"))) (re.++ (re.+ (re.* (str.to_re "11"))) (re.++ (re.union (re.union (str.to_re "222") (str.to_re "3")) (re.union (str.to_re "444") (str.to_re "555"))) (re.++ (re.+ (re.union (str.to_re "6") (str.to_re "77"))) (re.++ (re.union (re.* (str.to_re "88")) (re.* (str.to_re "9"))) (re.++ (re.+ (re.* (str.to_re "a"))) (re.++ (re.* (re.* (str.to_re "b"))) (re.++ (re.+ (re.+ (str.to_re "cc"))) (re.++ (re.* (re.union (str.to_re "dd") (str.to_re "ee"))) (re.union (re.+ (str.to_re "ff")) (re.+ (str.to_re "gg"))))))))))))))
(assert (str.in_re var0 (re.++ (re.+ (re.union (str.to_re "00") (str.to_re "11"))) (re.++ (re.+ (re.+ (str.to_re "222"))) (re.++ (re.* (re.+ (str.to_re "33"))) (re.++ (re.* (re.* (str.to_re "44"))) (re.++ (re.+ (re.* (str.to_re "555"))) (re.++ (re.union (re.* (str.to_re "66")) (re.* (str.to_re "77"))) (re.++ (re.union (re.* (str.to_re "88")) (re.* (str.to_re "9"))) (re.++ (re.union (re.* (str.to_re "aaa")) (re.* (str.to_re "bbb"))) (re.++ (re.+ (re.* (str.to_re "c"))) (re.union (re.union (str.to_re "ddd") (str.to_re "e")) (re.union (str.to_re "f") (str.to_re "ggg"))))))))))))))
(assert (str.in_re var0 (re.++ (re.+ (re.+ (str.to_re "00"))) (re.++ (re.+ (re.* (str.to_re "1"))) (re.++ (re.* (re.+ (str.to_re "2"))) (re.++ (re.* (re.* (str.to_re "333"))) (re.++ (re.union (re.* (str.to_re "4")) (re.* (str.to_re "5"))) (re.++ (re.+ (re.union (str.to_re "6") (str.to_re "77"))) (re.++ (re.* (re.* (str.to_re "88"))) (re.++ (re.* (re.union (str.to_re "99") (str.to_re "aaa"))) (re.++ (re.+ (re.+ (str.to_re "b"))) (re.* (re.union (str.to_re "c") (str.to_re "ddd"))))))))))))))
(check-sat)